certificates/rado_a14_c120_N55.cnf
c Rad2 upper bound instance: x1 + 14*x2 - x3 = 120, interval [1,55]
p cnf 55 432
1 7 9 0
-1 -7 -9 0
1 10 21 0
-1 -10 -21 0
1 11 35 0
-1 -11 -35 0
1 12 49 0
-1 -12 -49 0
2 8 9 0
-2 -8 -9 0
2 10 22 0
-2 -10 -22 0
2 11 36 0
-2 -11 -36 0
2 12 50 0
-2 -12 -50 0
3 9 0
-3 -9 0
3 10 23 0
-3 -10 -23 0
3 11 37 0
-3 -11 -37 0
3 12 51 0
-3 -12 -51 0
4 9 10 0
-4 -9 -10 0
4 10 24 0
-4 -10 -24 0
4 11 38 0
-4 -11 -38 0
4 12 52 0
-4 -12 -52 0
5 9 11 0
-5 -9 -11 0
5 10 25 0
-5 -10 -25 0
5 11 39 0
-5 -11 -39 0
5 12 53 0
-5 -12 -53 0
6 9 12 0
-6 -9 -12 0
6 10 26 0
-6 -10 -26 0
6 11 40 0
-6 -11 -40 0
6 12 54 0
-6 -12 -54 0
7 9 13 0
-7 -9 -13 0
7 10 27 0
-7 -10 -27 0
7 11 41 0
-7 -11 -41 0
7 12 55 0
-7 -12 -55 0
8 9 14 0
-8 -9 -14 0
8 10 28 0
-8 -10 -28 0
8 11 42 0
-8 -11 -42 0
1 8 9 0
-1 -8 -9 0
9 15 0
-9 -15 0
9 10 29 0
-9 -10 -29 0
9 11 43 0
-9 -11 -43 0
2 8 10 0
-2 -8 -10 0
9 10 16 0
-9 -10 -16 0
10 30 0
-10 -30 0
10 11 44 0
-10 -11 -44 0
3 8 11 0
-3 -8 -11 0
9 11 17 0
-9 -11 -17 0
10 11 31 0
-10 -11 -31 0
11 45 0
-11 -45 0
4 8 12 0
-4 -8 -12 0
9 12 18 0
-9 -12 -18 0
10 12 32 0
-10 -12 -32 0
11 12 46 0
-11 -12 -46 0
5 8 13 0
-5 -8 -13 0
9 13 19 0
-9 -13 -19 0
10 13 33 0
-10 -13 -33 0
11 13 47 0
-11 -13 -47 0
6 8 14 0
-6 -8 -14 0
9 14 20 0
-9 -14 -20 0
10 14 34 0
-10 -14 -34 0
11 14 48 0
-11 -14 -48 0
7 8 15 0
-7 -8 -15 0
9 15 21 0
-9 -15 -21 0
10 15 35 0
-10 -15 -35 0
11 15 49 0
-11 -15 -49 0
8 16 0
-8 -16 0
9 16 22 0
-9 -16 -22 0
10 16 36 0
-10 -16 -36 0
11 16 50 0
-11 -16 -50 0
8 9 17 0
-8 -9 -17 0
9 17 23 0
-9 -17 -23 0
10 17 37 0
-10 -17 -37 0
11 17 51 0
-11 -17 -51 0
8 10 18 0
-8 -10 -18 0
9 18 24 0
-9 -18 -24 0
10 18 38 0
-10 -18 -38 0
11 18 52 0
-11 -18 -52 0
8 11 19 0
-8 -11 -19 0
9 19 25 0
-9 -19 -25 0
10 19 39 0
-10 -19 -39 0
11 19 53 0
-11 -19 -53 0
8 12 20 0
-8 -12 -20 0
9 20 26 0
-9 -20 -26 0
10 20 40 0
-10 -20 -40 0
11 20 54 0
-11 -20 -54 0
8 13 21 0
-8 -13 -21 0
9 21 27 0
-9 -21 -27 0
10 21 41 0
-10 -21 -41 0
11 21 55 0
-11 -21 -55 0
8 14 22 0
-8 -14 -22 0
9 22 28 0
-9 -22 -28 0
10 22 42 0
-10 -22 -42 0
1 7 23 0
-1 -7 -23 0
8 15 23 0
-8 -15 -23 0
9 23 29 0
-9 -23 -29 0
10 23 43 0
-10 -23 -43 0
2 7 24 0
-2 -7 -24 0
8 16 24 0
-8 -16 -24 0
9 24 30 0
-9 -24 -30 0
10 24 44 0
-10 -24 -44 0
3 7 25 0
-3 -7 -25 0
8 17 25 0
-8 -17 -25 0
9 25 31 0
-9 -25 -31 0
10 25 45 0
-10 -25 -45 0
4 7 26 0
-4 -7 -26 0
8 18 26 0
-8 -18 -26 0
9 26 32 0
-9 -26 -32 0
10 26 46 0
-10 -26 -46 0
5 7 27 0
-5 -7 -27 0
8 19 27 0
-8 -19 -27 0
9 27 33 0
-9 -27 -33 0
10 27 47 0
-10 -27 -47 0
6 7 28 0
-6 -7 -28 0
8 20 28 0
-8 -20 -28 0
9 28 34 0
-9 -28 -34 0
10 28 48 0
-10 -28 -48 0
7 29 0
-7 -29 0
8 21 29 0
-8 -21 -29 0
9 29 35 0
-9 -29 -35 0
10 29 49 0
-10 -29 -49 0
7 8 30 0
-7 -8 -30 0
8 22 30 0
-8 -22 -30 0
9 30 36 0
-9 -30 -36 0
10 30 50 0
-10 -30 -50 0
7 9 31 0
-7 -9 -31 0
8 23 31 0
-8 -23 -31 0
9 31 37 0
-9 -31 -37 0
10 31 51 0
-10 -31 -51 0
7 10 32 0
-7 -10 -32 0
8 24 32 0
-8 -24 -32 0
9 32 38 0
-9 -32 -38 0
10 32 52 0
-10 -32 -52 0
7 11 33 0
-7 -11 -33 0
8 25 33 0
-8 -25 -33 0
9 33 39 0
-9 -33 -39 0
10 33 53 0
-10 -33 -53 0
7 12 34 0
-7 -12 -34 0
8 26 34 0
-8 -26 -34 0
9 34 40 0
-9 -34 -40 0
10 34 54 0
-10 -34 -54 0
7 13 35 0
-7 -13 -35 0
8 27 35 0
-8 -27 -35 0
9 35 41 0
-9 -35 -41 0
10 35 55 0
-10 -35 -55 0
7 14 36 0
-7 -14 -36 0
8 28 36 0
-8 -28 -36 0
9 36 42 0
-9 -36 -42 0
1 6 37 0
-1 -6 -37 0
7 15 37 0
-7 -15 -37 0
8 29 37 0
-8 -29 -37 0
9 37 43 0
-9 -37 -43 0
2 6 38 0
-2 -6 -38 0
7 16 38 0
-7 -16 -38 0
8 30 38 0
-8 -30 -38 0
9 38 44 0
-9 -38 -44 0
3 6 39 0
-3 -6 -39 0
7 17 39 0
-7 -17 -39 0
8 31 39 0
-8 -31 -39 0
9 39 45 0
-9 -39 -45 0
4 6 40 0
-4 -6 -40 0
7 18 40 0
-7 -18 -40 0
8 32 40 0
-8 -32 -40 0
9 40 46 0
-9 -40 -46 0
5 6 41 0
-5 -6 -41 0
7 19 41 0
-7 -19 -41 0
8 33 41 0
-8 -33 -41 0
9 41 47 0
-9 -41 -47 0
6 42 0
-6 -42 0
7 20 42 0
-7 -20 -42 0
8 34 42 0
-8 -34 -42 0
9 42 48 0
-9 -42 -48 0
6 7 43 0
-6 -7 -43 0
7 21 43 0
-7 -21 -43 0
8 35 43 0
-8 -35 -43 0
9 43 49 0
-9 -43 -49 0
6 8 44 0
-6 -8 -44 0
7 22 44 0
-7 -22 -44 0
8 36 44 0
-8 -36 -44 0
9 44 50 0
-9 -44 -50 0
6 9 45 0
-6 -9 -45 0
7 23 45 0
-7 -23 -45 0
8 37 45 0
-8 -37 -45 0
9 45 51 0
-9 -45 -51 0
6 10 46 0
-6 -10 -46 0
7 24 46 0
-7 -24 -46 0
8 38 46 0
-8 -38 -46 0
9 46 52 0
-9 -46 -52 0
6 11 47 0
-6 -11 -47 0
7 25 47 0
-7 -25 -47 0
8 39 47 0
-8 -39 -47 0
9 47 53 0
-9 -47 -53 0
6 12 48 0
-6 -12 -48 0
7 26 48 0
-7 -26 -48 0
8 40 48 0
-8 -40 -48 0
9 48 54 0
-9 -48 -54 0
6 13 49 0
-6 -13 -49 0
7 27 49 0
-7 -27 -49 0
8 41 49 0
-8 -41 -49 0
9 49 55 0
-9 -49 -55 0
6 14 50 0
-6 -14 -50 0
7 28 50 0
-7 -28 -50 0
8 42 50 0
-8 -42 -50 0
1 5 51 0
-1 -5 -51 0
6 15 51 0
-6 -15 -51 0
7 29 51 0
-7 -29 -51 0
8 43 51 0
-8 -43 -51 0
2 5 52 0
-2 -5 -52 0
6 16 52 0
-6 -16 -52 0
7 30 52 0
-7 -30 -52 0
8 44 52 0
-8 -44 -52 0
3 5 53 0
-3 -5 -53 0
6 17 53 0
-6 -17 -53 0
7 31 53 0
-7 -31 -53 0
8 45 53 0
-8 -45 -53 0
4 5 54 0
-4 -5 -54 0
6 18 54 0
-6 -18 -54 0
7 32 54 0
-7 -32 -54 0
8 46 54 0
-8 -46 -54 0
5 55 0
-5 -55 0
6 19 55 0
-6 -19 -55 0
7 33 55 0
-7 -33 -55 0
8 47 55 0
-8 -47 -55 0
