certificates/rado_a14_c120_N55.drat
-49 -55 0
-15 -51 0
15 -55 0
-55 0
5 0
-15 0
9 0
-3 0
-11 0
37 0
45 0
49 0
21 0
8 0
-43 0
0
